(declare-const peso Int) (declare-const planeta Int)  (assert (and (not (= planeta  1)) (not (= planeta  2))(not (= planeta  3))(not (= planeta  4))(not (= planeta  5))(= planeta  6)))(check-sat) (get-model)
